Route 1: 0 89 59 35 11 77 15 79 0
Route 2: 0 22 45 14 90 47 12 86 96 0
Route 3: 0 62 71 28 99 19 1 72 0
Route 4: 0 9 61 100 94 29 34 67 54 85 2 63 0
Route 5: 0 73 31 30 48 7 97 37 24 66 0
Route 6: 0 50 27 33 65 80 6 82 0
Route 7: 0 92 98 51 55 42 60 81 83 53 39 5 87 0
Route 8: 0 4 32 25 57 74 44 26 41 0
Route 9: 0 21 49 78 3 84 20 17 0
Route 10: 0 69 68 8 91 75 13 95 76 23 36 0
Route 11: 0 64 93 88 40 16 58 18 10 0
Route 12: 0 38 52 70 43 46 56 0
